c n orig vars 74
p cnf 139 235
-112 0
103 -47 0
103 -100 0
-103 47 100 0
75 -7 0
75 -100 0
-75 7 100 0
76 -7 0
76 -100 0
-76 7 100 0
77 -21 0
77 -100 0
-77 21 100 0
78 -8 0
78 -100 0
-78 8 100 0
-79 115 0
-79 118 0
79 -115 -118 0
-80 83 0
-80 84 0
80 -83 -84 0
-81 77 0
-81 78 0
-81 75 0
-81 76 0
81 -77 -78 -75 -76 0
-82 113 0
-82 116 0
82 -113 -116 0
83 -55 0
83 -56 0
83 -114 0
-83 55 56 114 0
84 -57 0
84 -58 0
84 -114 0
-84 57 58 114 0
-85 25 0
-85 94 0
85 -25 -94 0
86 -96 0
86 -95 0
-86 96 95 0
87 -93 0
87 -32 0
87 -31 0
87 -18 0
-87 93 32 31 18 0
88 -93 0
88 -54 0
88 -51 0
-88 93 54 51 0
89 -28 0
89 -27 0
89 -24 0
89 -23 0
-89 28 27 24 23 0
90 -67 0
90 -68 0
90 -69 0
90 -70 0
-90 67 68 69 70 0
91 -39 0
91 -61 0
91 -62 0
91 -14 0
-91 39 61 62 14 0
-92 108 0
-92 110 0
-92 127 0
92 -108 -110 -127 0
93 -29 0
93 -60 0
-93 29 60 0
94 -97 0
94 -6 0
-94 97 6 0
95 -20 0
95 -43 0
95 -18 0
-95 20 43 18 0
96 -1 0
96 -30 0
-96 1 30 0
-97 86 0
-97 87 0
97 -86 -87 0
-98 139 0
-98 138 0
98 -139 -138 0
-99 45 0
-99 106 0
99 -45 -106 0
100 -50 0
100 -49 0
100 -44 0
100 -43 0
-100 50 49 44 43 0
-101 107 0
-101 46 0
101 -107 -46 0
-102 99 0
-102 98 0
102 -99 -98 0
130 -22 0
130 -80 0
-130 22 80 0
104 -102 0
104 -101 0
-104 102 101 0
131 -82 0
131 -79 0
-131 82 79 0
-106 137 0
-106 136 0
106 -137 -136 0
-107 134 0
-107 133 0
107 -134 -133 0
108 -4 0
108 -53 0
108 -18 0
108 -111 0
-108 4 53 18 111 0
-116 119 0
-116 122 0
116 -119 -122 0
110 -54 0
110 -51 0
110 -111 0
-110 54 51 111 0
134 -71 0
134 -72 0
134 -73 0
134 -74 0
-134 71 72 73 74 0
-112 104 0
-112 103 0
112 -104 -103 0
-113 117 0
-113 120 0
113 -117 -120 0
114 -33 0
114 -52 0
114 -36 0
-114 33 52 36 0
115 -89 0
115 -90 0
-115 89 90 0
135 -121 0
135 -85 0
-135 121 85 0
117 -126 0
117 -125 0
-117 126 125 0
-118 91 0
-118 92 0
118 -91 -92 0
119 -121 0
119 -85 0
-119 121 85 0
-120 124 0
-120 105 0
120 -124 -105 0
121 -96 0
121 -16 0
121 -35 0
121 -59 0
-121 96 16 35 59 0
-122 86 0
-122 87 0
-122 88 0
122 -86 -87 -88 0
124 -26 0
124 -100 0
-124 26 100 0
-125 129 0
-125 92 0
125 -129 -92 0
126 -13 0
126 -12 0
126 -11 0
126 -10 0
126 -109 0
-126 13 12 11 10 109 0
127 -13 0
127 -12 0
127 -95 0
-127 13 12 95 0
-128 135 0
-128 122 0
128 -135 -122 0
129 -5 0
129 -128 0
-129 5 128 0
109 -9 0
109 -3 0
109 -34 0
-109 9 3 34 0
105 -38 0
105 -100 0
-105 38 100 0
-132 130 0
-132 81 0
132 -130 -81 0
133 -63 0
133 -64 0
133 -65 0
133 -48 0
133 -42 0
-133 63 64 65 48 42 0
111 -37 0
111 -2 0
111 -60 0
-111 37 2 60 0
123 -20 0
123 -43 0
-123 20 43 0
136 -15 0
136 -123 0
136 -18 0
136 -17 0
-136 15 123 18 17 0
137 -41 0
137 -123 0
137 -40 0
137 -66 0
-137 41 123 40 66 0
138 -19 0
138 -100 0
-138 19 100 0
-139 132 0
-139 131 0
139 -132 -131 0
